5	8	16	7	4	20	19	9	11	2
13	14	1	13	16	1	19	18	14	14
17	20	10	2	19	10	20	12	18	7
4	17	18	18	4	4	7	5	2	3
20	15	5	2	1	18	1	15	4	11
2	15	7	6	10	2	16	9	2	6
18	19	7	19	8	8	13	10	1	7
4	12	12	19	2	15	17	12	8	1
4	16	4	9	16	1	20	13	5	17
